c Random CNF formula
p cnf 50 25
-10 35 -24 0
-2 -38 37 0
36 21 35 0
-17 13 -48 0
-2 24 4 0
-43 -34 12 0
40 48 21 0
20 30 19 0
-26 17 -38 0
-22 -50 28 0
-37 -49 -17 0
13 34 -18 0
-25 -22 3 0
-10 24 -32 0
-47 46 -21 0
-7 -48 45 0
-42 -28 38 0
29 10 35 0
-7 39 -5 0
-30 -29 -36 0
-17 -48 -47 0
48 32 -39 0
-49 29 3 0
-21 31 -50 0
-25 -7 42 0
